min: 2000 y2p + 3000 y3p + 5 y1n  + 4 y2n ;

12 x1 + 9 x2 + 15 x3 + y1n - y1p = 125;
5 x1 + 3 x2 + 4 x3 + y2n - y2p = 40;
5 x1 + 7 x2 + 8 x3 + + y3n - y3p = 55;
x1 >= 0;
x2 >= 0;
x3 >= 0;
y1p >= 0;
y2p >= 0;
y3p >= 0;
y1n >= 0;
y2n >= 0;
y3n >= 0;




